
        kim init ${modelname} metal unit_conversion_mode

        # periodic boundary conditions along all three dimensions
        boundary p p p

        # Read crystal with 0K lattice parameter.
        read_data output/zero_temperature_crystal.dump

        # Convert box and all atomic positions to the correct units.
        #change_box all x scale ${_u_distance} &
        #               y scale ${_u_distance} &
        #               z scale ${_u_distance} &
        #               xy final $(xy*v__u_distance) &
        #               xz final $(xz*v__u_distance) &
        #               yz final $(yz*v__u_distance) &
        #               remap

        # Interatomic potential and neighbor settings
        kim           interactions ${species}

        # set the time step to 0.001 picoseconds
        variable      timestep_converted equal ${timestep}*${_u_time}
        timestep      ${timestep_converted}

        # Leaving pressure variables just in case we need to compute lattice parameters
        variable      temp_converted equal ${temperature}*${_u_temperature}
        variable      Tdamp_converted equal ${temperature_damping}*${_u_time}
        variable      press_converted equal ${pressure}*${_u_pressure}
        variable      Pdamp_converted equal ${pressure_damping}*${_u_time}

        # Initialize velocities.
        velocity      all create ${temp_converted} ${temperature_seed}

        # Set thermodynamic ensemble
        # if need to compute new box matrix, use uncomment second line
        fix           ensemble all nvt temp ${temp_converted} ${temp_converted} ${Tdamp_converted}
        #fix          ensemble all npt temp ${temp_converted} ${temp_converted} ${Tdamp_converted} tri ${press_converted} ${press_converted} ${Pdamp_converted}

        # Initialize measurement of box vectors
        #thermo_style custom avecx avecy avecz bvecx bvecy bvecz cvecx cvecy cvecz temp press vol etotal step
        thermo_style custom lx ly lz xy yz xz temp press vol etotal step
        thermo 1000

        # compute box information
        #variable      avecx_metal equal avecx/${_u_distance}
        #variable      avecy_metal equal avecy/${_u_distance}
        #variable      avecz_metal equal avecz/${_u_distance}

        #variable      bvecx_metal equal bvecx/${_u_distance}
        #variable      bvecy_metal equal bvecy/${_u_distance}
        #variable      bvecz_metal equal bvecz/${_u_distance}

        #variable      cvecx_metal equal cvecx/${_u_distance}
        #variable      cvecy_metal equal cvecy/${_u_distance}
        #variable      cvecz_metal equal cvecz/${_u_distance}

        variable       lx_metal equal lx/${_u_distance}
        variable       ly_metal equal ly/${_u_distance}
        variable       lz_metal equal lz/${_u_distance}

        # compute mean squared displacement
        compute       MSD all msd com yes average yes

        # Temperature may be off because of rigid bodies or SHAKE constraints. See https://docs.lammps.org/velocity.html
        run 0
        velocity all scale $(v_temperature*v__u_temperature)

        # Set up convergence check with kim-convergence.
        # Alternative is to set a safe general equilibration time
        # More important for expensive potentials
        #python run_length_control input 6 SELF 1 variable msd_metal format pissss file run_length_control_preFL.py

        # Run until converged.
        #python run_length_control invoke

        # Equilibration
        run 10000

        # compute averages of above variables
        fix           AVG all ave/time 100 100 10000 v_lx_metal v_ly_metal v_lz_metal c_MSD[4] ave running
                                                    #v_bvecx_metal v_bvecy_metal v_bvecz_metal &
                                                    #v_cvecx_metal v_cvecy_metal v_cvecz_metal &
                                                    #c_MSD[4] ave running

        # Run steps in the converged regime.
        run 10000

        # compute spring constant
        variable      kB equal 8.617333262e-5*(v__u_energy/v__u_temperature) # eV/K unless converted
        variable      MSD equal f_AVG[4]*(v__u_distance)^2
        variable      spring_constant equal $(3*v_kB*v_temp_converted/(v_MSD)^2)

        # Write final averages and spring constant
        #print "# xx | xy | xz | yx | yy | yz | zx | zy | zz | spring constant [eV/Ang^2]" file ${output_filename}
        #print "$(f_AVG[1]) $(f_AVG[2]) $(f_AVG[3]) $(f_AVG[4]) $(f_AVG[5]) $(f_AVG[6]) $(f_AVG[7]) $(f_AVG[8]) $(f_AVG[9]) ${spring_constant}" screen no append ${output_filename}
        print "# lx | ly | lz [Ang] | vol [Ang^3] | spring constant [eV/Ang^2]" file ${output_filename}
        print "$(f_AVG[1]) $(f_AVG[2]) $(f_AVG[3]) $(vol) ${spring_constant}" screen no append ${output_filename}

        # Reset.
        unfix ensemble
        unfix AVG
        #unfix cr_fix  # From run_length_control.py
        reset_timestep 0

        # Write the initial starting file for a true simulation.
        write_restart ${write_restart_filename}



        